(declare-const a Real)
(declare-const b Real)
(declare-const c Real)
(assert (= (+ a b c) 3))
(assert (not (<= (+ (* -2 (pow a 4)) (* -2 (pow b 4)) (* -2 (pow c 4)) (* (pow a 2) (pow c 2)) (* (pow b 2) (pow c 2)) (* (pow (+ 2 (* 2 a b (pow c 2))) -1) (pow (+ (* 2 a b) (* 2 a b (pow c 2))) 2))) 0)))
(check-sat)
(get-model)
(exit)ow c 2))) 2))) 0)))
(check-sat)
(get-model)
(exit)